(set-info :smt-lib-version 2.6)
(set-logic UFNIRA)
(set-info :source |
Generated by: Geoff Sutcliffe
Generated on: 2026-03-11
Generator: TPTPWorld
Application: Benchmarking automated theorem provers
Time limit: 120.0

These benchmarks are translations from the TPTP Library (Thousands of
Problems for Theorem Provers), see http://www.cs.miami.edu/~tptp/

The TPTP is maintained by Geoff Sutcliffe, and he contributed this
selection of benchmarks to SMT-LIB.  They were exported from the
v9.2.1 realease of TPTP.
|)
(set-info :category "industrial")
(set-info :status "unknown")
; SZS status Success
(declare-sort $$unsorted 0)
(declare-sort |tptp.'S2'| 0)
(declare-sort |tptp.'S4'| 0)
(declare-sort |tptp.'S6'| 0)
(declare-sort |tptp.'S5'| 0)
(declare-sort |tptp.'S1'| 0)
(declare-sort |tptp.'S3'| 0)
(declare-sort |tptp.'S7'| 0)
(declare-fun tptp.f6 () |tptp.'S4'|)
(declare-fun tptp.f16 (|tptp.'S7'| Int) |tptp.'S4'|)
(declare-fun tptp.f11 () |tptp.'S5'|)
(declare-fun tptp.f10 (|tptp.'S5'| Real) Real)
(declare-fun tptp.f14 () |tptp.'S6'|)
(declare-fun tptp.f9 () |tptp.'S2'|)
(declare-fun tptp.f15 (|tptp.'S4'|) |tptp.'S2'|)
(declare-fun tptp.f8 () |tptp.'S4'|)
(declare-fun tptp.f4 (|tptp.'S3'| |tptp.'S4'|) Real)
(declare-fun tptp.f17 () |tptp.'S7'|)
(declare-fun tptp.f1 () |tptp.'S1'|)
(declare-fun tptp.f12 () |tptp.'S5'|)
(declare-fun tptp.f5 () |tptp.'S3'|)
(declare-fun tptp.f7 () Real)
(declare-fun tptp.f2 () |tptp.'S1'|)
(declare-fun tptp.f3 (Real) |tptp.'S2'|)
(declare-fun tptp.f13 (|tptp.'S6'| |tptp.'S4'|) Int)
(assert (not (= tptp.f1 tptp.f2)))
(assert (not (not (= (tptp.f3 (/ (* (tptp.f4 tptp.f5 tptp.f6) (* 2.0 tptp.f7)) (tptp.f4 tptp.f5 tptp.f8))) tptp.f9))))
(assert (< 0.0 (/ (* (tptp.f4 tptp.f5 tptp.f6) (* 2.0 tptp.f7)) (tptp.f4 tptp.f5 tptp.f8))))
(assert (exists ((A__questionmark_v_0_1 Real)) (and (= A__questionmark_v_0_1 (* 2.0 tptp.f7)) (< (/ (* (tptp.f4 tptp.f5 tptp.f6) A__questionmark_v_0_1) (tptp.f4 tptp.f5 tptp.f8)) A__questionmark_v_0_1))))
(assert (forall ((A__questionmark_v0 Real)) (exists ((A__questionmark_v_0_2 Real)) (and (= A__questionmark_v_0_2 0.0) (=> (< A__questionmark_v_0_2 A__questionmark_v0) (=> (< A__questionmark_v0 (* 2.0 tptp.f7)) (or (not (= (tptp.f10 tptp.f11 A__questionmark_v0) A__questionmark_v_0_2)) (not (= (tptp.f10 tptp.f12 A__questionmark_v0) 1.0)))))))))
(assert (forall ((A__questionmark_v0 Real)) (exists ((A__questionmark_v_0_3 Real)) (and (= A__questionmark_v_0_3 0.0) (=> (< A__questionmark_v_0_3 A__questionmark_v0) (=> (< A__questionmark_v0 (* 2.0 tptp.f7)) (or (not (= (tptp.f10 tptp.f11 A__questionmark_v0) A__questionmark_v_0_3)) (not (= (tptp.f10 tptp.f12 A__questionmark_v0) 1.0)))))))))
(assert (< 0 (tptp.f13 tptp.f14 tptp.f6)))
(assert (< 0.0 (/ (* (tptp.f4 tptp.f5 tptp.f6) (* 2.0 tptp.f7)) (tptp.f4 tptp.f5 tptp.f8))))
(assert (exists ((A__questionmark_v_0_4 Real)) (and (= A__questionmark_v_0_4 (* 2.0 tptp.f7)) (< (/ (* (tptp.f4 tptp.f5 tptp.f6) A__questionmark_v_0_4) (tptp.f4 tptp.f5 tptp.f8)) A__questionmark_v_0_4))))
(assert (< (tptp.f13 tptp.f14 tptp.f6) (tptp.f13 tptp.f14 tptp.f8)))
(assert (exists ((A__questionmark_v_1_5 Real) (A__questionmark_v_0_6 Real)) (and (= A__questionmark_v_1_5 (tptp.f4 tptp.f5 tptp.f8)) (= A__questionmark_v_0_6 (* 2.0 tptp.f7)) (=> (< (tptp.f13 tptp.f14 tptp.f6) (tptp.f13 tptp.f14 tptp.f8)) (=> (< 0.0 (/ A__questionmark_v_0_6 A__questionmark_v_1_5)) (< (/ (* (tptp.f4 tptp.f5 tptp.f6) A__questionmark_v_0_6) A__questionmark_v_1_5) A__questionmark_v_0_6))))))
(assert (forall ((A__questionmark_v0 |tptp.'S4'|)) (<= 0.0 (tptp.f4 tptp.f5 A__questionmark_v0))))
(assert (= (tptp.f3 0.0) tptp.f9))
(assert (forall ((A__questionmark_v0 |tptp.'S4'|)) (= (tptp.f15 A__questionmark_v0) (tptp.f3 (/ (* 2.0 tptp.f7) (tptp.f4 tptp.f5 A__questionmark_v0))))))
(assert (forall ((A__questionmark_v0 Real)) (= (tptp.f10 tptp.f11 (- A__questionmark_v0 tptp.f7)) (- (tptp.f10 tptp.f11 A__questionmark_v0)))))
(assert (forall ((A__questionmark_v0 |tptp.'S4'|)) (= (tptp.f10 tptp.f12 (* (* 2.0 (tptp.f4 tptp.f5 A__questionmark_v0)) tptp.f7)) 1.0)))
(assert (not (= tptp.f7 0.0)))
(assert (not (< tptp.f7 0.0)))
(assert (not (= (/ tptp.f7 2.0) 0.0)))
(assert (exists ((A__questionmark_v_0_7 Real)) (and (= A__questionmark_v_0_7 2.0) (not (= (/ tptp.f7 A__questionmark_v_0_7) A__questionmark_v_0_7)))))
(assert (< 0.0 tptp.f7))
(assert (<= 0.0 tptp.f7))
(assert (< tptp.f7 4.0))
(assert (not (= (tptp.f10 tptp.f12 2.0) 0.0)))
(assert (= (tptp.f10 tptp.f12 0.0) 1.0))
(assert (exists ((A__questionmark_v_0_8 Real)) (and (= A__questionmark_v_0_8 0.0) (= (tptp.f10 tptp.f11 A__questionmark_v_0_8) A__questionmark_v_0_8))))
(assert (forall ((A__questionmark_v0 Real)) (<= (- 1.0) (tptp.f10 tptp.f12 A__questionmark_v0))))
(assert (forall ((A__questionmark_v0 Real)) (<= (- 1.0) (tptp.f10 tptp.f11 A__questionmark_v0))))
(assert (forall ((A__questionmark_v0 Real)) (<= (tptp.f10 tptp.f12 A__questionmark_v0) 1.0)))
(assert (forall ((A__questionmark_v0 Real)) (<= (tptp.f10 tptp.f11 A__questionmark_v0) 1.0)))
(assert (forall ((A__questionmark_v0 Real)) (exists ((A__questionmark_v_0_9 Real)) (let ((_let_1 (< A__questionmark_v_0_9 0.0))) (and (= A__questionmark_v_0_9 (tptp.f10 tptp.f12 A__questionmark_v0)) (=> _let_1 (<= (- A__questionmark_v_0_9) 1.0)) (=> (not _let_1) (<= A__questionmark_v_0_9 1.0)))))))
(assert (forall ((A__questionmark_v0 Real)) (exists ((A__questionmark_v_0_10 Real)) (let ((_let_1 (< A__questionmark_v_0_10 0.0))) (and (= A__questionmark_v_0_10 (tptp.f10 tptp.f11 A__questionmark_v0)) (=> _let_1 (<= (- A__questionmark_v_0_10) 1.0)) (=> (not _let_1) (<= A__questionmark_v_0_10 1.0)))))))
(assert (forall ((A__questionmark_v0 Real)) (= (tptp.f10 tptp.f12 (- A__questionmark_v0)) (tptp.f10 tptp.f12 A__questionmark_v0))))
(assert (forall ((A__questionmark_v0 Real)) (= (tptp.f10 tptp.f11 (- A__questionmark_v0)) (- (tptp.f10 tptp.f11 A__questionmark_v0)))))
(assert (< (tptp.f10 tptp.f12 2.0) 0.0))
(assert (<= (tptp.f10 tptp.f12 2.0) 0.0))
(assert (forall ((A__questionmark_v0 Real) (A__questionmark_v1 Real)) (= (tptp.f10 tptp.f12 (+ A__questionmark_v0 A__questionmark_v1)) (- (* (tptp.f10 tptp.f12 A__questionmark_v0) (tptp.f10 tptp.f12 A__questionmark_v1)) (* (tptp.f10 tptp.f11 A__questionmark_v0) (tptp.f10 tptp.f11 A__questionmark_v1))))))
(assert (forall ((A__questionmark_v0 Real) (A__questionmark_v1 Real)) (= (tptp.f10 tptp.f12 (- A__questionmark_v0 A__questionmark_v1)) (+ (* (tptp.f10 tptp.f12 A__questionmark_v0) (tptp.f10 tptp.f12 A__questionmark_v1)) (* (tptp.f10 tptp.f11 A__questionmark_v0) (tptp.f10 tptp.f11 A__questionmark_v1))))))
(assert (forall ((A__questionmark_v0 Real) (A__questionmark_v1 Real)) (= (tptp.f10 tptp.f12 (- A__questionmark_v0 A__questionmark_v1)) (+ (* (tptp.f10 tptp.f12 A__questionmark_v1) (tptp.f10 tptp.f12 A__questionmark_v0)) (* (tptp.f10 tptp.f11 A__questionmark_v1) (tptp.f10 tptp.f11 A__questionmark_v0))))))
(assert (forall ((A__questionmark_v0 Real) (A__questionmark_v1 Real)) (= (tptp.f10 tptp.f11 (+ A__questionmark_v0 A__questionmark_v1)) (+ (* (tptp.f10 tptp.f11 A__questionmark_v0) (tptp.f10 tptp.f12 A__questionmark_v1)) (* (tptp.f10 tptp.f12 A__questionmark_v0) (tptp.f10 tptp.f11 A__questionmark_v1))))))
(assert (forall ((A__questionmark_v0 Real) (A__questionmark_v1 Real)) (= (tptp.f10 tptp.f11 (- A__questionmark_v0 A__questionmark_v1)) (- (* (tptp.f10 tptp.f12 A__questionmark_v1) (tptp.f10 tptp.f11 A__questionmark_v0)) (* (tptp.f10 tptp.f11 A__questionmark_v1) (tptp.f10 tptp.f12 A__questionmark_v0))))))
(assert (forall ((A__questionmark_v0 Real) (A__questionmark_v1 Real)) (= (tptp.f10 tptp.f11 (- A__questionmark_v0 A__questionmark_v1)) (- (* (tptp.f10 tptp.f11 A__questionmark_v0) (tptp.f10 tptp.f12 A__questionmark_v1)) (* (tptp.f10 tptp.f12 A__questionmark_v0) (tptp.f10 tptp.f11 A__questionmark_v1))))))
(assert (forall ((A__questionmark_v0 Real)) (exists ((A__questionmark_v_0_11 Real)) (and (= A__questionmark_v_0_11 2.0) (= (tptp.f10 tptp.f11 (* A__questionmark_v_0_11 A__questionmark_v0)) (* (* A__questionmark_v_0_11 (tptp.f10 tptp.f11 A__questionmark_v0)) (tptp.f10 tptp.f12 A__questionmark_v0)))))))
(assert (forall ((A__questionmark_v0 Real)) (exists ((A__questionmark_v_0_12 Real) (A__questionmark_v_1_13 Real)) (and (= A__questionmark_v_0_12 (tptp.f10 tptp.f12 A__questionmark_v0)) (= A__questionmark_v_1_13 (tptp.f10 tptp.f11 A__questionmark_v0)) (= (+ (* A__questionmark_v_0_12 A__questionmark_v_0_12) (* A__questionmark_v_1_13 A__questionmark_v_1_13)) 1.0)))))
(assert (forall ((A__questionmark_v0 Real)) (exists ((A__questionmark_v_0_14 Real)) (and (= A__questionmark_v_0_14 0.0) (=> (< A__questionmark_v_0_14 A__questionmark_v0) (=> (< A__questionmark_v0 2.0) (< A__questionmark_v_0_14 (tptp.f10 tptp.f11 A__questionmark_v0))))))))
(assert (forall ((A__questionmark_v0 Real)) (exists ((A__questionmark_v_0_15 Real)) (and (= A__questionmark_v_0_15 2.0) (=> (< 0.0 A__questionmark_v0) (=> (< A__questionmark_v0 A__questionmark_v_0_15) (< (tptp.f10 tptp.f12 (* A__questionmark_v_0_15 A__questionmark_v0)) 1.0)))))))
(assert (forall ((A__questionmark_v0 Real)) (=> (= (tptp.f10 tptp.f12 A__questionmark_v0) 1.0) (= (tptp.f10 tptp.f11 A__questionmark_v0) 0.0))))
(assert (forall ((A__questionmark_v0 Real)) (exists ((A__questionmark_v_0_16 Real) (A__questionmark_v_1_17 Real)) (let ((_let_1 (< A__questionmark_v_1_17 A__questionmark_v_0_16))) (and (= A__questionmark_v_0_16 0.0) (= A__questionmark_v_1_17 (tptp.f10 tptp.f12 A__questionmark_v0)) (=> (= (tptp.f10 tptp.f11 A__questionmark_v0) A__questionmark_v_0_16) (and (=> _let_1 (= (- A__questionmark_v_1_17) 1.0)) (=> (not _let_1) (= A__questionmark_v_1_17 1.0)))))))))
(assert (forall ((A__questionmark_v0 Real)) (= (- (tptp.f10 tptp.f11 A__questionmark_v0)) (tptp.f10 tptp.f12 (+ A__questionmark_v0 (/ tptp.f7 2.0))))))
(assert (forall ((A__questionmark_v0 Real)) (= (tptp.f10 tptp.f11 A__questionmark_v0) (tptp.f10 tptp.f12 (- (/ tptp.f7 2.0) A__questionmark_v0)))))
(assert (forall ((A__questionmark_v0 Real)) (= (tptp.f10 tptp.f12 A__questionmark_v0) (tptp.f10 tptp.f11 (- (/ tptp.f7 2.0) A__questionmark_v0)))))
(assert (forall ((A__questionmark_v0 Real)) (exists ((A__questionmark_v_0_18 Real)) (and (= A__questionmark_v_0_18 0.0) (=> (< (/ (- tptp.f7) 2.0) A__questionmark_v0) (=> (< A__questionmark_v0 A__questionmark_v_0_18) (< (tptp.f10 tptp.f11 A__questionmark_v0) A__questionmark_v_0_18)))))))
(assert (forall ((A__questionmark_v0 Real) (A__questionmark_v1 Real)) (exists ((A__questionmark_v_0_19 Real)) (and (= A__questionmark_v_0_19 (/ tptp.f7 2.0)) (=> (<= (- A__questionmark_v_0_19) A__questionmark_v0) (=> (<= A__questionmark_v0 A__questionmark_v1) (=> (<= A__questionmark_v1 A__questionmark_v_0_19) (<= (tptp.f10 tptp.f11 A__questionmark_v0) (tptp.f10 tptp.f11 A__questionmark_v1)))))))))
(assert (forall ((A__questionmark_v0 Real)) (exists ((A__questionmark_v_0_20 Real)) (and (= A__questionmark_v_0_20 0.0) (=> (< A__questionmark_v_0_20 A__questionmark_v0) (=> (< A__questionmark_v0 (/ tptp.f7 2.0)) (< A__questionmark_v_0_20 (tptp.f10 tptp.f11 A__questionmark_v0))))))))
(assert (forall ((A__questionmark_v0 Real)) (exists ((A__questionmark_v_0_21 Real)) (and (= A__questionmark_v_0_21 0.0) (=> (<= A__questionmark_v_0_21 A__questionmark_v0) (=> (<= A__questionmark_v0 tptp.f7) (<= A__questionmark_v_0_21 (tptp.f10 tptp.f11 A__questionmark_v0))))))))
(assert (forall ((A__questionmark_v0 Real)) (exists ((A__questionmark_v_0_22 Real)) (and (= A__questionmark_v_0_22 0.0) (=> (< A__questionmark_v_0_22 A__questionmark_v0) (=> (< A__questionmark_v0 tptp.f7) (< A__questionmark_v_0_22 (tptp.f10 tptp.f11 A__questionmark_v0))))))))
(assert (= (tptp.f10 tptp.f11 (* (/ 3.0 2.0) tptp.f7)) (- 1.0)))
(assert (= (tptp.f10 tptp.f11 (* 2.0 tptp.f7)) 0.0))
(assert (forall ((A__questionmark_v0 Real)) (= (tptp.f10 tptp.f11 (+ A__questionmark_v0 (* 2.0 tptp.f7))) (tptp.f10 tptp.f11 A__questionmark_v0))))
(assert (forall ((A__questionmark_v0 Real)) (= (tptp.f10 tptp.f11 (+ A__questionmark_v0 tptp.f7)) (- (tptp.f10 tptp.f11 A__questionmark_v0)))))
(assert (= (tptp.f10 tptp.f11 (/ tptp.f7 6.0)) (/ 1.0 2.0)))
(assert (= (tptp.f10 tptp.f11 (/ tptp.f7 2.0)) 1.0))
(assert (forall ((A__questionmark_v0 Real)) (= (tptp.f10 tptp.f11 (+ tptp.f7 A__questionmark_v0)) (- (tptp.f10 tptp.f11 A__questionmark_v0)))))
(assert (= (tptp.f10 tptp.f11 tptp.f7) 0.0))
(assert (forall ((A__questionmark_v0 Real)) (exists ((A__questionmark_v_0_23 Real)) (and (= A__questionmark_v_0_23 (/ tptp.f7 2.0)) (=> (<= (- A__questionmark_v_0_23) A__questionmark_v0) (=> (<= A__questionmark_v0 A__questionmark_v_0_23) (<= 0.0 (tptp.f10 tptp.f12 A__questionmark_v0))))))))
(assert (forall ((A__questionmark_v0 Real)) (exists ((A__questionmark_v_0_24 Real)) (and (= A__questionmark_v_0_24 (/ tptp.f7 2.0)) (=> (< (- A__questionmark_v_0_24) A__questionmark_v0) (=> (< A__questionmark_v0 A__questionmark_v_0_24) (< 0.0 (tptp.f10 tptp.f12 A__questionmark_v0))))))))
(assert (forall ((A__questionmark_v0 Real) (A__questionmark_v1 Real)) (=> (<= (- tptp.f7) A__questionmark_v0) (=> (<= A__questionmark_v0 A__questionmark_v1) (=> (<= A__questionmark_v1 0.0) (<= (tptp.f10 tptp.f12 A__questionmark_v0) (tptp.f10 tptp.f12 A__questionmark_v1)))))))
(assert (forall ((A__questionmark_v0 Real) (A__questionmark_v1 Real)) (=> (<= (- tptp.f7) A__questionmark_v0) (=> (< A__questionmark_v0 A__questionmark_v1) (=> (<= A__questionmark_v1 0.0) (< (tptp.f10 tptp.f12 A__questionmark_v0) (tptp.f10 tptp.f12 A__questionmark_v1)))))))
(assert (forall ((A__questionmark_v0 |tptp.'S4'|)) (= (tptp.f16 tptp.f17 (tptp.f13 tptp.f14 A__questionmark_v0)) A__questionmark_v0)))
(assert (forall ((A__questionmark_v0 Int)) (=> (<= 0 A__questionmark_v0) (= (tptp.f13 tptp.f14 (tptp.f16 tptp.f17 A__questionmark_v0)) A__questionmark_v0))))
(assert (forall ((A__questionmark_v0 Int)) (=> (< A__questionmark_v0 0) (= (tptp.f13 tptp.f14 (tptp.f16 tptp.f17 A__questionmark_v0)) 0))))
(check-sat)
